// INFEASIBLE
// That case test is an infeasible instance, because the total number of houres the nurse has to work is 11
minHours=4;
maxHours=10;
maxConsec=6;
maxPresence=12;
demand=[0 0 1 1 1 1 1 1 1 0 1 0 1 1 1 0 0 0 0 0 0 0 0 0];
nNurses=1;